Version identifier: 20.1.0.0 | 2020-11-10 | 9bedb6d68
Tried aggregator 2 times.
MIP Presolve eliminated 1259 rows and 687 columns.
MIP Presolve modified 3138 coefficients.
Aggregator did 136 substitutions.
Reduced MIP has 1814 rows, 1392 columns, and 5954 nonzeros.
Reduced MIP has 241 binaries, 1151 generals, 0 SOSs, and 0 indicators.
Presolve time = 0.02 sec. (7.10 ticks)
Probing fixed 40 vars, tightened 447 bounds.
Probing time = 0.00 sec. (1.22 ticks)
Tried aggregator 1 time.
Detecting symmetries...
MIP Presolve eliminated 780 rows and 40 columns.
MIP Presolve modified 91 coefficients.
Reduced MIP has 1034 rows, 1352 columns, and 3374 nonzeros.
Reduced MIP has 325 binaries, 1027 generals, 0 SOSs, and 0 indicators.
Presolve time = 0.01 sec. (3.73 ticks)
Probing time = 0.00 sec. (0.25 ticks)
Clique table members: 5.
MIP emphasis: balance optimality and feasibility.
MIP search method: dynamic search.
Parallel mode: deterministic, using up to 24 threads.
Root relaxation solution time = 0.01 sec. (2.74 ticks)

        Nodes                                         Cuts/
   Node  Left     Objective  IInf  Best Integer    Best Bound    ItCnt     Gap

*     0+    0                           51.0000        0.0000           100.00%
      0     0        0.0000    46       51.0000        0.0000      315  100.00%
      0     0        0.0000    58       51.0000      Cuts: 40      356  100.00%
      0     0        0.0000    58       51.0000      Cuts: 71      433  100.00%
*     0+    0                           11.0000        0.0000           100.00%
*     0+    0                            8.0000        0.0000           100.00%
      0     0        cutoff              8.0000        8.0000      433    0.00%
Elapsed time = 0.78 sec. (86.73 ticks, tree = 0.01 MB, solutions = 3)

Cover cuts applied:  3
Implied bound cuts applied:  32
Flow cuts applied:  1
Mixed integer rounding cuts applied:  2
Zero-half cuts applied:  33
Lift and project cuts applied:  4
Gomory fractional cuts applied:  22

Root node processing (before b&c):
  Real time             =    0.78 sec. (86.84 ticks)
Parallel b&c, 24 threads:
  Real time             =    0.00 sec. (0.00 ticks)
  Sync time (average)   =    0.00 sec.
  Wait time (average)   =    0.00 sec.
                          ------------
Total (root+branch&cut) =    0.78 sec. (86.84 ticks)

Solution status = Optimal
Solution LB = 8
Solution UB = 8
Runtime = 0.786722 seconds
	Command being timed: "/home/min/git_repos/CS598MEBProject/CNT-ILP/build/cnt -s 2 ./output/k8_n20/simC_c1_k8_n20_u2_s1_del04.input-right.cnp"
	User time (seconds): 12.38
	System time (seconds): 0.10
	Percent of CPU this job got: 1536%
	Elapsed (wall clock) time (h:mm:ss or m:ss): 0:00.81
	Average shared text size (kbytes): 0
	Average unshared data size (kbytes): 0
	Average stack size (kbytes): 0
	Average total size (kbytes): 0
	Maximum resident set size (kbytes): 94492
	Average resident set size (kbytes): 0
	Major (requiring I/O) page faults: 0
	Minor (reclaiming a frame) page faults: 20845
	Voluntary context switches: 4461
	Involuntary context switches: 2045
	Swaps: 0
	File system inputs: 0
	File system outputs: 16
	Socket messages sent: 0
	Socket messages received: 0
	Signals delivered: 0
	Page size (bytes): 4096
	Exit status: 0
